736990
0,71,62,31,117,48,70,139,134,82,156,73,38,206,66,146,126,162,177,30,198,97,41,159,112,72,208,125,69,85,118,192,194,135,180,187,123,130,147,60,181,24,122,84,166,78,94,83,28,173,75,56,10,142,196,213,45,124,226,18,133,110,47,224,46,16,12,219,29,63,43,175,222,103,211,44,229,203,171,167,92,212,58,220,51,79,131,172,205,217,113,197,199,9,200,109,13,164,193,96,119,7,14,137,2,184,188,15,59,136,207,158,22,68,225,176,50,121,151,190,64,153,163,138,57,1,114,148,81,157,55,17,53,174,91,52,99,215,104,201,98,189,23,65,218,140,105,127,40,221,76,120,179,102,186,11,145,185,170,149,141,169,89,108,87,227,3,20,216,152,128,223,32,37,202,5,67,8,88,21,25,143,144,210,155,4,90,95,165,100,183,115,160,106,195,178,191,36,33,204,74,214,77,54,129,80,39,168,26,101,61,86,34,107,93,49,150,27,154,111,132,228,116,19,182,209,6,35,161,42